Route #1: 10 17 46 50 3 40 32
Route #2: 22 56 6
Route #3: 1 27 18 28 9 55 31
Route #4: 45 24 52 54 43
Route #5: 12 38 48 35 49 30 4
Route #6: 14 34 19 39 26 13
Route #7: 42 44 16 23 2 20 7
Route #8: 5 47 36 21 41 29 53
Route #9: 33 11 37 51 25 15 8
Cost 1601
Time 0.115851
